54 54
24 5
29 17
52 18
18 10
7 20
21 6
35 1
1 13
30 8
2 27
44 13
25 16
40 11
14 26
8 9
46 21
38 14
34 2
11 26
54 8
23 10
33 24
9 23
36 4
27 20
39 21
37 18
48 4
22 12
13 11
6 3
4 2
15 25
50 6
42 22
41 25
20 7
28 14
49 5
19 9
31 12
47 3
43 15
53 7
26 19
5 27
10 16
3 17
45 23
16 15
51 1
17 24
12 19
32 22
